# Solution for model SBM-StripPacking-19
# Objective value = 338
c[0,0] 193
c[0,1] 277.5
c[1,0] 73.5
c[1,1] 324
c[2,0] 243.5
c[2,1] 196
c[3,0] 8
c[3,1] 321
c[4,0] 342
c[4,1] 217
c[5,0] 326
c[5,1] 174
c[6,0] 317
c[6,1] 59
c[7,0] 196.5
c[7,1] 321.5
c[8,0] 275
c[8,1] 138.5
c[9,0] 173.5
c[9,1] 122
c[10,0] 211
c[10,1] 112
c[11,0] 167.5
c[11,1] 27.5
c[12,0] 26.5
c[12,1] 238
c[13,0] 25.5
c[13,1] 32
c[14,0] 207
c[14,1] 62
c[15,0] 124.5
c[15,1] 245
c[16,0] 253
c[16,1] 276.5
c[17,0] 48
c[17,1] 129.5
c[18,0] 340
c[18,1] 151
h 338
delta[0,1] 1
delta[0,2] 0
delta[0,3] 1
delta[0,4] 0
delta[0,5] 0
delta[0,6] 0
delta[0,7] 1
delta[0,8] 0
delta[0,9] 0
delta[0,10] 0
delta[0,11] 0
delta[0,12] 1
delta[0,13] 0
delta[0,14] 0
delta[0,15] 1
delta[0,16] 0
delta[0,17] 0
delta[0,18] 0
delta[1,0] 0
delta[1,2] 0
delta[1,3] 1
delta[1,4] 0
delta[1,5] 0
delta[1,6] 0
delta[1,7] 0
delta[1,8] 0
delta[1,9] 0
delta[1,10] 0
delta[1,11] 0
delta[1,12] 0
delta[1,13] 0
delta[1,14] 0
delta[1,15] 0
delta[1,16] 0
delta[1,17] 0
delta[1,18] 0
delta[2,0] 1
delta[2,1] 0
delta[2,3] 1
delta[2,4] 0
delta[2,5] 0
delta[2,6] 0
delta[2,7] 1
delta[2,8] 0
delta[2,9] 1
delta[2,10] 0
delta[2,11] 0
delta[2,12] 0
delta[2,13] 0
delta[2,14] 0
delta[2,15] 0
delta[2,16] 1
delta[2,17] 0
delta[2,18] 1
delta[3,0] 0
delta[3,1] 1
delta[3,2] 1
delta[3,4] 0
delta[3,5] 0
delta[3,6] 0
delta[3,7] 0
delta[3,8] 0
delta[3,9] 0
delta[3,10] 0
delta[3,11] 0
delta[3,12] 0
delta[3,13] 0
delta[3,14] 1
delta[3,15] 1
delta[3,16] 1
delta[3,17] 0
delta[3,18] 0
delta[4,0] 0
delta[4,1] 0
delta[4,2] 0
delta[4,3] 0
delta[4,5] 0
delta[4,6] 0
delta[4,7] 1
delta[4,8] 0
delta[4,9] 0
delta[4,10] 0
delta[4,11] 0
delta[4,12] 0
delta[4,13] 0
delta[4,14] 0
delta[4,15] 0
delta[4,16] 0
delta[4,17] 0
delta[4,18] 0
delta[5,0] 0
delta[5,1] 0
delta[5,2] 0
delta[5,3] 0
delta[5,4] 1
delta[5,6] 0
delta[5,7] 1
delta[5,8] 0
delta[5,9] 1
delta[5,10] 0
delta[5,11] 0
delta[5,12] 0
delta[5,13] 0
delta[5,14] 0
delta[5,15] 0
delta[5,16] 1
delta[5,17] 0
delta[5,18] 0
delta[6,0] 0
delta[6,1] 0
delta[6,2] 1
delta[6,3] 0
delta[6,4] 1
delta[6,5] 1
delta[6,7] 1
delta[6,8] 1
delta[6,9] 1
delta[6,10] 0
delta[6,11] 0
delta[6,12] 0
delta[6,13] 0
delta[6,14] 0
delta[6,15] 0
delta[6,16] 1
delta[6,17] 0
delta[6,18] 1
delta[7,0] 0
delta[7,1] 0
delta[7,2] 0
delta[7,3] 0
delta[7,4] 0
delta[7,5] 0
delta[7,6] 0
delta[7,8] 0
delta[7,9] 0
delta[7,10] 0
delta[7,11] 0
delta[7,12] 0
delta[7,13] 0
delta[7,14] 0
delta[7,15] 0
delta[7,16] 1
delta[7,17] 0
delta[7,18] 0
delta[8,0] 0
delta[8,1] 0
delta[8,2] 1
delta[8,3] 0
delta[8,4] 1
delta[8,5] 1
delta[8,6] 0
delta[8,7] 1
delta[8,9] 1
delta[8,10] 0
delta[8,11] 0
delta[8,12] 0
delta[8,13] 0
delta[8,14] 0
delta[8,15] 1
delta[8,16] 1
delta[8,17] 0
delta[8,18] 1
delta[9,0] 1
delta[9,1] 1
delta[9,2] 1
delta[9,3] 1
delta[9,4] 1
delta[9,5] 1
delta[9,6] 1
delta[9,7] 1
delta[9,8] 1
delta[9,10] 1
delta[9,11] 0
delta[9,12] 0
delta[9,13] 0
delta[9,14] 1
delta[9,15] 1
delta[9,16] 1
delta[9,17] 0
delta[9,18] 1
delta[10,0] 1
delta[10,1] 1
delta[10,2] 1
delta[10,3] 1
delta[10,4] 0
delta[10,5] 0
delta[10,6] 0
delta[10,7] 1
delta[10,8] 1
delta[10,9] 1
delta[10,11] 0
delta[10,12] 1
delta[10,13] 0
delta[10,14] 0
delta[10,15] 1
delta[10,16] 1
delta[10,17] 1
delta[10,18] 0
delta[11,0] 1
delta[11,1] 1
delta[11,2] 1
delta[11,3] 1
delta[11,4] 0
delta[11,5] 1
delta[11,6] 0
delta[11,7] 1
delta[11,8] 1
delta[11,9] 1
delta[11,10] 1
delta[11,12] 1
delta[11,13] 1
delta[11,14] 1
delta[11,15] 1
delta[11,16] 1
delta[11,17] 1
delta[11,18] 1
delta[12,0] 1
delta[12,1] 1
delta[12,2] 0
delta[12,3] 1
delta[12,4] 0
delta[12,5] 0
delta[12,6] 0
delta[12,7] 0
delta[12,8] 0
delta[12,9] 0
delta[12,10] 1
delta[12,11] 0
delta[12,13] 0
delta[12,14] 0
delta[12,15] 0
delta[12,16] 0
delta[12,17] 0
delta[12,18] 0
delta[13,0] 1
delta[13,1] 1
delta[13,2] 0
delta[13,3] 1
delta[13,4] 0
delta[13,5] 0
delta[13,6] 0
delta[13,7] 0
delta[13,8] 0
delta[13,9] 0
delta[13,10] 1
delta[13,11] 1
delta[13,12] 1
delta[13,14] 0
delta[13,15] 0
delta[13,16] 0
delta[13,17] 1
delta[13,18] 0
delta[14,0] 1
delta[14,1] 1
delta[14,2] 1
delta[14,3] 1
delta[14,4] 0
delta[14,5] 0
delta[14,6] 0
delta[14,7] 1
delta[14,8] 0
delta[14,9] 1
delta[14,10] 1
delta[14,11] 0
delta[14,12] 1
delta[14,13] 0
delta[14,15] 1
delta[14,16] 1
delta[14,17] 1
delta[14,18] 0
delta[15,0] 1
delta[15,1] 0
delta[15,2] 0
delta[15,3] 1
delta[15,4] 0
delta[15,5] 0
delta[15,6] 0
delta[15,7] 0
delta[15,8] 0
delta[15,9] 0
delta[15,10] 0
delta[15,11] 0
delta[15,12] 0
delta[15,13] 0
delta[15,14] 0
delta[15,16] 0
delta[15,17] 0
delta[15,18] 0
delta[16,0] 0
delta[16,1] 0
delta[16,2] 0
delta[16,3] 1
delta[16,4] 0
delta[16,5] 0
delta[16,6] 0
delta[16,7] 1
delta[16,8] 0
delta[16,9] 1
delta[16,10] 0
delta[16,11] 0
delta[16,12] 0
delta[16,13] 0
delta[16,14] 0
delta[16,15] 0
delta[16,17] 0
delta[16,18] 0
delta[17,0] 1
delta[17,1] 1
delta[17,2] 0
delta[17,3] 1
delta[17,4] 0
delta[17,5] 0
delta[17,6] 0
delta[17,7] 0
delta[17,8] 0
delta[17,9] 0
delta[17,10] 1
delta[17,11] 0
delta[17,12] 1
delta[17,13] 0
delta[17,14] 1
delta[17,15] 1
delta[17,16] 1
delta[17,18] 0
delta[18,0] 0
delta[18,1] 0
delta[18,2] 1
delta[18,3] 1
delta[18,4] 1
delta[18,5] 1
delta[18,6] 0
delta[18,7] 1
delta[18,8] 1
delta[18,9] 1
delta[18,10] 0
delta[18,11] 0
delta[18,12] 0
delta[18,13] 0
delta[18,14] 0
delta[18,15] 1
delta[18,16] 1
delta[18,17] 0
DELTA[0,1] 0
DELTA[0,2] 0
DELTA[0,3] 0
DELTA[0,4] 0
DELTA[0,5] 0
DELTA[0,6] 0
DELTA[0,7] 0
DELTA[0,8] 0
DELTA[0,9] 0
DELTA[0,10] 0
DELTA[0,11] 0
DELTA[0,12] 1
DELTA[0,13] 0
DELTA[0,14] 0
DELTA[0,15] 1
DELTA[0,16] 0
DELTA[0,17] 0
DELTA[0,18] 0
DELTA[1,2] 0
DELTA[1,3] 1
DELTA[1,4] 0
DELTA[1,5] 0
DELTA[1,6] 0
DELTA[1,7] 0
DELTA[1,8] 0
DELTA[1,9] 0
DELTA[1,10] 0
DELTA[1,11] 0
DELTA[1,12] 0
DELTA[1,13] 0
DELTA[1,14] 0
DELTA[1,15] 0
DELTA[1,16] 0
DELTA[1,17] 0
DELTA[1,18] 0
DELTA[2,3] 1
DELTA[2,4] 0
DELTA[2,5] 0
DELTA[2,6] 0
DELTA[2,7] 0
DELTA[2,8] 0
DELTA[2,9] 1
DELTA[2,10] 0
DELTA[2,11] 0
DELTA[2,12] 0
DELTA[2,13] 0
DELTA[2,14] 0
DELTA[2,15] 0
DELTA[2,16] 0
DELTA[2,17] 0
DELTA[2,18] 1
DELTA[3,4] 0
DELTA[3,5] 0
DELTA[3,6] 0
DELTA[3,7] 0
DELTA[3,8] 0
DELTA[3,9] 0
DELTA[3,10] 0
DELTA[3,11] 0
DELTA[3,12] 0
DELTA[3,13] 0
DELTA[3,14] 1
DELTA[3,15] 1
DELTA[3,16] 1
DELTA[3,17] 0
DELTA[3,18] 0
DELTA[4,5] 0
DELTA[4,6] 0
DELTA[4,7] 0
DELTA[4,8] 0
DELTA[4,9] 0
DELTA[4,10] 0
DELTA[4,11] 0
DELTA[4,12] 0
DELTA[4,13] 0
DELTA[4,14] 0
DELTA[4,15] 0
DELTA[4,16] 0
DELTA[4,17] 0
DELTA[4,18] 0
DELTA[5,6] 0
DELTA[5,7] 0
DELTA[5,8] 0
DELTA[5,9] 1
DELTA[5,10] 0
DELTA[5,11] 0
DELTA[5,12] 0
DELTA[5,13] 0
DELTA[5,14] 0
DELTA[5,15] 0
DELTA[5,16] 0
DELTA[5,17] 0
DELTA[5,18] 0
DELTA[6,7] 0
DELTA[6,8] 0
DELTA[6,9] 1
DELTA[6,10] 0
DELTA[6,11] 0
DELTA[6,12] 0
DELTA[6,13] 0
DELTA[6,14] 0
DELTA[6,15] 0
DELTA[6,16] 0
DELTA[6,17] 0
DELTA[6,18] 0
DELTA[7,8] 0
DELTA[7,9] 0
DELTA[7,10] 0
DELTA[7,11] 0
DELTA[7,12] 0
DELTA[7,13] 0
DELTA[7,14] 0
DELTA[7,15] 0
DELTA[7,16] 1
DELTA[7,17] 0
DELTA[7,18] 0
DELTA[8,9] 1
DELTA[8,10] 0
DELTA[8,11] 0
DELTA[8,12] 0
DELTA[8,13] 0
DELTA[8,14] 0
DELTA[8,15] 0
DELTA[8,16] 0
DELTA[8,17] 0
DELTA[8,18] 1
DELTA[9,10] 1
DELTA[9,11] 0
DELTA[9,12] 0
DELTA[9,13] 0
DELTA[9,14] 1
DELTA[9,15] 0
DELTA[9,16] 1
DELTA[9,17] 0
DELTA[9,18] 1
DELTA[10,11] 0
DELTA[10,12] 1
DELTA[10,13] 0
DELTA[10,14] 0
DELTA[10,15] 0
DELTA[10,16] 0
DELTA[10,17] 1
DELTA[10,18] 0
DELTA[11,12] 0
DELTA[11,13] 1
DELTA[11,14] 0
DELTA[11,15] 0
DELTA[11,16] 0
DELTA[11,17] 0
DELTA[11,18] 0
DELTA[12,13] 0
DELTA[12,14] 0
DELTA[12,15] 0
DELTA[12,16] 0
DELTA[12,17] 0
DELTA[12,18] 0
DELTA[13,14] 0
DELTA[13,15] 0
DELTA[13,16] 0
DELTA[13,17] 0
DELTA[13,18] 0
DELTA[14,15] 0
DELTA[14,16] 0
DELTA[14,17] 1
DELTA[14,18] 0
DELTA[15,16] 0
DELTA[15,17] 0
DELTA[15,18] 0
DELTA[16,17] 0
DELTA[16,18] 0
DELTA[17,18] 0
